32      2       
23      19      
0       0       0       3       2       3       4       
6       5       0       2       11      14      
8       0       8       3       7       19      23      
3       0       8       2       5       10      
5       0       6       3       6       8       9       
7       10      0       1       17      
5       8       0       1       30      
3       0       4       3       12      15      26      
3       0       7       3       11      29      30      
10      7       0       1       13      
3       5       0       1       24      
1       0       5       2       17      28      
6       0       8       1       21      
3       8       0       2       18      25      
6       0       3       1       16      
4       0       6       1       28      
2       0       9       1       20      
2       0       6       2       21      23      
5       2       0       1       24      
5       0       1       1       22      
9       0       7       1       22      
1       6       0       1       24      
1       4       0       3       26      27      31      
5       1       0       1       31      
2       4       0       1       29      
4       0       5       1       30      
2       0       3       1       28      
3       7       0       1       29      
2       3       0       1       32      
4       0       9       1       32      
2       4       0       1       32      
0       0       0       0       